8 965
535 8 493 8 396 9 228 10 178 22
525 7 479 7 355 7 106 9 927 13
535 8 494 8 321 11
525 7 477 7 391 7 243 9 78 11 921 15
520 7 441 7 296 7 152 12
528 7 482 7 365 7 117 9 959 11 735 15 583 22
520 7 476 7 355 7 196 12
525 7 477 7 391 7 244 9 79 11 2 15
